NAME: SCAIL100_4312_01
COMMENT:Generated as the SCAIL100 dataset for the INCOM2024 Data Challenge
TYPE: Multi-Depot CVRP
DEPOTS: 4
DIMENSION: 104
EDGE_WEIGHT_TYPE: EUC_2D
CAPACITY: 6

NODE_COORD_SECTION 
1    272  738 
2    821  782 
3    64   261 
4    499  29  
5    523  882 
6    425  151 
7    22   26  
8    527  909 
9    449  679 
10   642  155 
11   432  519 
12   464  771 
13   586  824 
14   681  177 
15   601  996 
16   604  839 
17   595  116 
18   408  64  
19   177  375 
20   839  287 
21   816  413 
22   566  238 
23   466  114 
24   523  166 
25   690  755 
26   9    961 
27   935  31  
28   532  809 
29   518  911 
30   534  992 
31   871  284 
32   665  554 
33   104  923 
34   847  302 
35   738  996 
36   728  512 
37   961  507 
38   938  569 
39   536  836 
40   900  368 
41   524  828 
42   849  932 
43   992  432 
44   520  110 
45   698  135 
46   880  303 
47   484  129 
48   603  873 
49   533  860 
50   491  918 
51   123  760 
52   719  794 
53   520  112 
54   948  22  
55   958  990 
56   607  128 
57   325  31  
58   540  227 
59   526  823 
60   517  402 
61   340  803 
62   902  390 
63   841  105 
64   644  741 
65   513  822 
66   702  221 
67   541  331 
68   426  857 
69   260  742 
70   686  194 
71   791  213 
72   782  448 
73   473  852 
74   432  335 
75   944  657 
76   248  761 
77   743  29  
78   500  33  
79   340  917 
80   860  132 
81   779  470 
82   561  903 
83   605  967 
84   35   491 
85   542  14  
86   588  66  
87   383  88  
88   353  236 
89   102  190 
90   953  261 
91   821  234 
92   504  115 
93   424  680 
94   406  149 
95   693  224 
96   866  963 
97   538  124 
98   633  59  
99   975  296 
100  630  225 
101  562  136 
102  310  290 
103  797  167 
104  903  511 

DEMAND_SECTION
1    0   
2    0   
3    0   
4    0   
5    1   
6    1   
7    1   
8    1   
9    1   
10   1   
11   1   
12   1   
13   1   
14   1   
15   1   
16   1   
17   1   
18   1   
19   1   
20   1   
21   1   
22   1   
23   1   
24   1   
25   1   
26   1   
27   1   
28   1   
29   1   
30   1   
31   1   
32   1   
33   1   
34   1   
35   1   
36   1   
37   1   
38   1   
39   1   
40   1   
41   1   
42   1   
43   1   
44   1   
45   1   
46   1   
47   1   
48   1   
49   1   
50   1   
51   1   
52   1   
53   1   
54   1   
55   1   
56   1   
57   1   
58   1   
59   1   
60   1   
61   1   
62   1   
63   1   
64   1   
65   1   
66   1   
67   1   
68   1   
69   1   
70   1   
71   1   
72   1   
73   1   
74   1   
75   1   
76   1   
77   1   
78   1   
79   1   
80   1   
81   1   
82   1   
83   1   
84   1   
85   1   
86   1   
87   1   
88   1   
89   1   
90   1   
91   1   
92   1   
93   1   
94   1   
95   1   
96   1   
97   1   
98   1   
99   1   
100  1   
101  1   
102  1   
103  1   
104  1   

DEPOT_SECTION
1    272  738 
2    821  782 
3    64   261 
4    499  29  
-1
EOF
